50, 11238
925, 1024
949, 1048
893, 994
84, 184
593, 692
424, 522
531, 632
131, 232
192, 294
445, 544
222, 322
456, 558
25, 125
86, 188
711, 809
422, 524
513, 611
735, 835
359, 457
58, 160
784, 885
590, 692
658, 760
621, 723
971, 1071
363, 465
760, 861
369, 468
573, 675
661, 760
315, 413
86, 184
475, 575
718, 816
591, 693
448, 550
643, 742
183, 281
179, 279
324, 422
816, 916
196, 298
115, 214
99, 199
39, 141
276, 376
573, 672
821, 923
331, 433
370, 472
